HUN,8,6,608
5,7,2,9,1,7,3,29,4,12,0,10
4,10,0,30,1,10,3,22,5,25,2,9
2,12,5,4,1,9,3,27,4,24,0,19
5,11,4,29,0,10,1,15,3,5,2,18
0,17,2,7,3,24,1,5,5,9,4,30
4,3,5,22,1,26,3,16,0,27,2,17
0,21,3,17,4,2,5,18,1,24,2,30
4,21,1,11,0,22,2,23,5,1,3,2
